src/baselines/gurobi_baseline/levy.sol
# Solution for model levy
# Objective value = 4.0005897723506525e+00
x0 7.7228455494650881e+00
x1 3.7267604552648370e+00
x2 1
w0 2.6807113873662720e+00
w1 1.6816901138162093e+00
w2 1
sin_1_in 8.4217032009443820e+00
sin_1_out 8.4310919937840567e-01
sin_last_in 6.2831853071795862e+00
sin_last_out 0
term_last_1 0
term_last_2 1
var_sin_inter_in0 9.4217032009443820e+00
var_sin_inter_out0 3.0747495030128379e-03
var_term_inter_10 2.8247898097171955e+00
var_term_inter_20 1.0000939824940696e+00
var_summation_item0 2.8250552389994068e+00
var_sin_inter_in1 6.2831853071795862e+00
var_sin_inter_out1 0
var_term_inter_11 4.6470141127475584e-01
var_term_inter_21 1
var_summation_item1 4.6470141127474918e-01
